c --- [ banner ] -------------------------------------------------------------
c 
c CaDiCaL Radically Simplified CDCL SAT Solver
c Copyright (c) 2016-2021 A. Biere, M. Fleury, N. Froleyks
c 
c Version 1.5.2 ca9bff05c11bde5eae4912f9932871d1527e61d8
c g++ (GCC) 9.3.0 -Wall -Wextra -O3 -DNDEBUG
c Thu Jul 28 23:42:48 EDT 2022 Linux gra-login3 3.10.0-1160.66.1.el7.x86_64 x86_64
c 
c --- [ limit ] --------------------------------------------------------------
c 
c setting conflict limit to 200000 conflicts (due to '200000')
c 
c --- [ parsing input ] ------------------------------------------------------
c 
c reading DIMACS file from '23.cubes626.adj'
c opening file to read '23.cubes626.adj'
c found 'p cnf 5320 914894' header
c parsed 914894 clauses in 8.19 seconds process time
c closing file '23.cubes626.adj'
c after reading 637830001 bytes 608.3 MB
c 
c --- [ options ] ------------------------------------------------------------
c 
c all options are set to their default value
c 
c --- [ solving ] ------------------------------------------------------------
c 
c time measured in process time since initialization
c 
c  seconds   reductions  redundant  irredundant
c          MB    restarts       trail      variables
c           level   conflicts       glue        remaining
c 
c *  8.19 632  0 0   0    0    0  0% 0 914847 2060 39%
c {  8.60 659  0 0   0    0    0  0% 0 914847 2060 39%
c i  9.04 678 776 0   2   70   64 31% 3 914847 2035 38%
c i  9.05 678 764 0   3   71   64 31% 3 914847 2014 38%
c i 10.14 698 226 0  45  242  131 21% 9 914847 2009 38%
c i 10.59 705 217 0  50  259  146 21% 11 914847 2008 38%
c - 13.33 662 191 1  63  302  171 21% 12 239095 2008 38%
c i 13.46 663 150 1  71  390  185 20% 11 239095 2007 38%
c i 13.46 663 150 1  71  391  185 20% 11 239095 2006 38%
c i 13.46 663 149 1  71  392  185 21% 11 239095 2005 38%
c i 13.46 663 149 1  71  393  185 21% 11 239095 2004 38%
c i 13.46 663 148 1  71  395  186 21% 11 239095 2003 38%
c i 13.46 663 148 1  71  397  186 21% 11 239095 2002 38%
c i 13.47 663 147 1  71  399  187 21% 11 239095 2001 38%
c i 13.47 663 147 1  71  400  187 21% 11 239095 2000 38%
c i 13.48 663 146 1  71  403  189 21% 11 239095 1999 38%
c i 13.58 663 138 1  73  437  218 21% 12 239095 1998 38%
c i 14.13 663 119 1  89  551  284 21% 12 239095 1997 38%
c i 14.19 663 119 1  91  558  289 21% 12 239095 1996 38%
c i 14.26 663 118 1  93  572  300 21% 13 239095 1995 38%
c 
c  seconds    reductions  redundant   irredundant
c          MB     restarts       trail       variables
c            level   conflicts       glue         remaining
c 
c i 14.37 663 117 1  98  589  316 21% 14 239095 1994 37%
c i 14.65 663 110 1 113  656  357 22% 14 239095 1993 37%
c i 14.70 663 109 1 118  677  373 22% 15 239095 1992 37%
c i 14.71 663 109 1 119  681  376 22% 15 239095 1991 37%
c i 14.88 664 105 1 134  737  410 22% 15 239095 1990 37%
c i 14.88 664 105 1 134  738  410 22% 15 239095 1989 37%
c i 14.90 664 105 1 135  741  412 22% 15 239095 1988 37%
c i 14.91 664 104 1 135  742  412 22% 15 239095 1987 37%
c i 15.57 664 101 1 162  863  507 22% 18 239095 1986 37%
c i 15.59 664 101 1 162  867  510 22% 18 239095 1985 37%
c i 15.59 664 101 1 163  868  510 22% 18 239095 1984 37%
c i 15.62 664 100 1 166  880  520 22% 18 239095 1983 37%
c i 15.68 664 100 1 168  888  526 22% 18 239095 1982 37%
c } 15.88 664 93 1 183 1001  579 22% 18 239095 1982 37%
c [ 15.88 664  0 1 183 1001  579  0% 0 239095 1982 37%
c O 15.88 664  0 1 183 1002  579 10% 0 239095 1982 37%
c i 15.88 664  0 1 183 1002  579 10% 0 239095 1980 37%
c i 15.88 664  0 1 183 1003  579 10% 0 239095 1969 37%
c i 15.88 664  0 1 183 1004  579 10% 0 239095 1959 37%
c i 16.09 665 23 1 183 1096  661 31% 17 239095 1958 37%
c 
c  seconds   reductions  redundant   irredundant
c          MB    restarts       trail       variables
c           level   conflicts       glue         remaining
c 
c i 16.11 665 23 1 183 1115  677 30% 16 239095 1957 37%
c - 16.55 722 23 2 183 1130  625 30% 16 238277 1957 37%
c i 16.62 722 22 2 183 1139  631 30% 16 238277 1956 37%
c ] 17.01 722 17 2 184 2143 1358 30% 14 238277 1956 37%
c 1 17.01 722 17 2 184 2143 1358 30% 14 238277 1956 37%
c 
c --- [ writing output ] -----------------------------------------------------
c 
c writing simplified CNF to DIMACS file 'simp/23.cubes626.adj.simp1'
c * 17.01 722 17 2 184 2143 1358 30% 14 238277 1956 37%
c opening file to write 'simp/23.cubes626.adj.simp1'
c writing 'p cnf 5320 238274' header
c closing file 'simp/23.cubes626.adj.simp1'
c after writing 93140049 bytes 88.8 MB
c wrote 238274 clauses in 0.75 seconds process time
c 
c --- [ writing extension ] --------------------------------------------------
c 
c writing extension stack to 'simp/23.cubes626.adj.ext1'
c opening file to write 'simp/23.cubes626.adj.ext1'
c closing file 'simp/23.cubes626.adj.ext1'
c after writing 7718 bytes 0.0 MB
c wrote 527 witnesses in 0.00 seconds process time
c 
c --- [ result ] -------------------------------------------------------------
c 
s SATISFIABLE
c 
c --- [ run-time profiling ] -------------------------------------------------
c 
c process time taken by individual solving procedures
c (percentage relative to process time for solving)
c 
c         8.82  100.00% search
c         8.19   92.84% parse
c         7.28   82.59% unstable
c         1.13   12.76% stable
c         0.41    4.64% lucky
c         0.00    0.00% simplify
c   =================================
c         8.82   49.66% solve
c 
c last line shows process time for solving
c (percentage relative to total process time)
c 
c --- [ statistics ] ---------------------------------------------------------
c 
c chronological:               570        26.60 %  of conflicts
c conflicts:                  2143       243.02    per second
c decisions:                 17425      1976.00    per second
c fixed:                       527         9.91 %  of all variables
c learned:                    2090        97.53 %  per conflict
c learned_lits:             283665       100.00 %  learned literals
c minimized:                     0         0.00 %  learned literals
c shrunken:                 123407        43.50 %  learned literals
c minishrunken:              42708        15.06 %  learned literals
c propagations:             273189         0.03 M  per second
c reduced:                      57         2.66 %  per conflict
c rephased:                      1      2143.00    interval
c restarts:                    184        11.65    interval
c stabilizing:                   1        53.29 %  of conflicts
c subsumed:                    631         0.03 %  of all clauses
c 
c seconds are measured in process time for solving
c 
c --- [ resources ] ----------------------------------------------------------
c 
c total process time since initialization:        17.76    seconds
c total real time since initialization:           17.83    seconds
c maximum resident set size of process:          749.81    MB
c 
c --- [ shutting down ] ------------------------------------------------------
c 
c exit 10
WARNING! DIMACS header mismatch: wrong number of variables.
============================[ Problem Statistics ]=============================
|                                                                             |
|  Number of variables:          5282                                         |
|  Number of clauses:          238274                                         |
|  Parse time:                   1.32 s                                       |
|  Simplification time:          0.02 s                                       |
|                                                                             |
============================[ Search Statistics ]====================================================
| Conflicts |          ORIGINAL         |          LEARNT          | Num Sols |      SUBGRAPHS      |
|           |    Vars  Clauses Literals |    Limit  Clauses Lit/Cl |          | Canonical Noncanon. |
=====================================================================================================
|       101 |    5204   238275 21161493 |     2000      101    106 |        0 |        19         1 |
|       257 |    5204   238281 21161639 |     2000      257     77 |        0 |        32         7 |
|       487 |    5203   238286 21161771 |     2000      486     72 |        0 |        40        12 |
|       827 |    5201   238289 21161869 |     2000      824     81 |        0 |        49        15 |
|      1335 |    5197   238291 21161919 |     2000     1328     89 |        0 |        72        17 |
|      3965 |    5197   240162 21194357 |     3597     2962     16 |        0 |       517      1888 |
|      8655 |    5197   243713 21251491 |     6309     3364     12 |        0 |      1325      5439 |
|     16224 |    5197   249574 21345817 |     8783     4007     11 |        0 |      2624     11300 |
|     29085 |    5197   259873 21502875 |    11198     7483     11 |        0 |      3975     21599 |
|     59862 |    5197   286806 21928414 |    16008    12270     13 |        0 |      7535     48532 |
|     92357 |    5195   313535 22345718 |    19614    18969     20 |        0 |     10101     75261 |
|    150767 |    5185   363296 23054462 |    25613    22380     12 |        0 |     13698    125022 |
|    244810 |    5091   261808 13764362 |    32807    22392     13 |        0 |     18791    206091 |
=====================================================================================================
Number of solutions   : 0
Canonical subgraphs   : 19273          (81 /sec)
          order  3    : 1              (166667 /sec)
          order  4    : 1              (500000 /sec)
          order  5    : 1              (250000 /sec)
          order  6    : 1              (52632 /sec)
          order  7    : 2              (9804 /sec)
          order  8    : 6              (2635 /sec)
          order  9    : 23             (802 /sec)
          order 10    : 93             (243 /sec)
          order 11    : 387            (135 /sec)
          order 12    : 1957           (109 /sec)
          order 13    : 14788          (90 /sec)
          order 14    : 1909           (39 /sec)
          order 15    : 104            (22 /sec)
          order 16    : 0              (-nan /sec)
          order 17    : 0              (-nan /sec)
          order 18    : 0              (-nan /sec)
          order 19    : 0              (-nan /sec)
          order 20    : 0              (-nan /sec)
          order 21    : 0              (-nan /sec)
Noncanonical subgraphs: 232581         (566 /sec)
          order  3    : 0              (-nan /sec)
          order  4    : 0              (-nan /sec)
          order  5    : 0              (-nan /sec)
          order  6    : 0              (-nan /sec)
          order  7    : 0              (-nan /sec)
          order  8    : 0              (-nan /sec)
          order  9    : 0              (-nan /sec)
          order 10    : 0              (-nan /sec)
          order 11    : 0              (-nan /sec)
          order 12    : 0              (-nan /sec)
          order 13    : 32561          (3543 /sec)
          order 14    : 192389         (504 /sec)
          order 15    : 7492           (380 /sec)
          order 16    : 139            (219 /sec)
          order 17    : 0              (-nan /sec)
          order 18    : 0              (-nan /sec)
          order 19    : 0              (-nan /sec)
          order 20    : 0              (-nan /sec)
Canonicity checking   : 238.943 s
Noncanonicity checking: 411.197 s
Total canonicity time : 650.14 s
database reductions   : 27
restarts              : 643
conflicts             : 275796         (387 /sec)
decisions             : 561647         (0.00 % random) (788 /sec)
propagations          : 25528576       (35809 /sec)
conflict literals     : 4264978        (64.52 % deleted)
actual reward         : 0.046580
Memory used           : 240.00 MB
CPU time              : 712.917 s

UNSATISFIABLE
